************************************************************************
file with basedata            : j9039_.bas
initial value random generator: 1842733477
************************************************************************
projects                      :  1
jobs (incl. supersource/sink ):  92
horizon                       :  490
RESOURCES
  - renewable                 :  4   R
  - nonrenewable              :  0   N
  - doubly constrained        :  0   D
************************************************************************
PROJECT INFORMATION:
pronr.  #jobs rel.date duedate tardcost  MPM-Time
    1     90      0       79       54       79
************************************************************************
PRECEDENCE RELATIONS:
jobnr.    #modes  #successors   successors
   1        1          3           2   3   4
   2        1          3           5   8  23
   3        1          2           7  64
   4        1          3           6  24  27
   5        1          3          10  28  30
   6        1          3          15  31  75
   7        1          3          11  13  17
   8        1          3           9  12  16
   9        1          3          14  25  51
  10        1          3          12  27  57
  11        1          3          33  49  89
  12        1          3          15  20  76
  13        1          3          21  29  32
  14        1          3          19  22  65
  15        1          3          49  82  83
  16        1          2          40  63
  17        1          3          18  57  61
  18        1          2          38  44
  19        1          2          28  47
  20        1          3          42  50  52
  21        1          3          39  51  53
  22        1          3          26  55  58
  23        1          1          64
  24        1          3          45  48  50
  25        1          3          34  39  74
  26        1          3          28  36  46
  27        1          2          51  77
  28        1          3          61  62  66
  29        1          2          30  80
  30        1          2          34  83
  31        1          2          37  54
  32        1          3          45  54  63
  33        1          3          35  37  47
  34        1          2          36  37
  35        1          3          41  53  88
  36        1          1          68
  37        1          1          66
  38        1          3          39  48  75
  39        1          3          54  56  59
  40        1          2          48  71
  41        1          3          43  55  72
  42        1          3          46  49  69
  43        1          2          44  60
  44        1          1          69
  45        1          2          47  55
  46        1          3          56  61  86
  47        1          3          59  60  88
  48        1          2          58  67
  49        1          1          87
  50        1          3          56  62  74
  51        1          3          67  74  78
  52        1          3          53  65  66
  53        1          1          72
  54        1          2          58  62
  55        1          1          57
  56        1          2          71  84
  57        1          3          59  60  70
  58        1          2          70  82
  59        1          3          73  76  77
  60        1          3          68  69  73
  61        1          2          63  84
  62        1          1          89
  63        1          1          70
  64        1          3          65  68  81
  65        1          3          67  71  77
  66        1          2          87  91
  67        1          2          73  82
  68        1          2          76  79
  69        1          2          75  79
  70        1          1          78
  71        1          2          72  89
  72        1          1          79
  73        1          2          80  86
  74        1          3          81  85  86
  75        1          1          81
  76        1          1          78
  77        1          1          80
  78        1          1          85
  79        1          1          90
  80        1          1          85
  81        1          1          83
  82        1          1          84
  83        1          1          91
  84        1          1          87
  85        1          1          91
  86        1          1          90
  87        1          1          88
  88        1          1          90
  89        1          1          92
  90        1          1          92
  91        1          1          92
  92        1          0        
************************************************************************
REQUESTS/DURATIONS:
jobnr. mode duration  R 1  R 2  R 3  R 4
------------------------------------------------------------------------
  1      1     0       0    0    0    0
  2      1     2       0    4    8    0
  3      1     1       8    2    1    0
  4      1     4       2    0    0    6
  5      1     5       0    2    4    0
  6      1     1       0    0    0    2
  7      1     5       0    8    0    9
  8      1     8       0    6    0    5
  9      1     2       4    1    5    0
 10      1     1       5    0    0    0
 11      1     5       8    5    0    0
 12      1     1       0    0    0   10
 13      1     2       0    0    1   10
 14      1     9       0    6    0    3
 15      1     4       5   10    2    0
 16      1     8       5    2    0    0
 17      1     9       3    6    0    0
 18      1    10       0    0    0    8
 19      1     3       1    2    0    0
 20      1     3       1    1    2    1
 21      1     9       0    0    9    9
 22      1     2       9    8    0    3
 23      1    10       6    7    9    0
 24      1     5       0    0    8    0
 25      1     7       2    9    0    0
 26      1     4       0    8    6    0
 27      1     1       9    8    0    3
 28      1     9       8    7    6    0
 29      1     1       0    8    0    2
 30      1    10       0    0    5    8
 31      1     3       0    0    9   10
 32      1     9       0    5   10    0
 33      1     8       0    6    4   10
 34      1     1       5    0    1    0
 35      1     3       1    0    0    0
 36      1     9       0    8    0    4
 37      1     5       0    7    2    0
 38      1     5       0    0    9    0
 39      1     5       0    0    0    8
 40      1    10       0    2    0    6
 41      1     4       9    0    0    8
 42      1     2       0    0    7    2
 43      1     9       0    6    0    6
 44      1     9       0    8    0    7
 45      1    10       0    0    0    2
 46      1     8       0    1    0    0
 47      1     6       5    0    0    0
 48      1     3       7    2    6    5
 49      1     5       0    1    0    2
 50      1    10       0    5    0    1
 51      1     3       0    0    0    7
 52      1     8       5    1    0    7
 53      1    10       3    9    0    0
 54      1     5      10    8    0    0
 55      1     2       0    1   10    0
 56      1    10       0    0    8    0
 57      1     7       0    0    5    0
 58      1     8       9   10    0    0
 59      1     3       0    4    8    0
 60      1     6       0    0    0    1
 61      1     5      10    0    0    8
 62      1     5       0   10    0    0
 63      1     3       4    7    3    2
 64      1     7       0    9    7    8
 65      1     6       5    0    0    0
 66      1     6       0    6    0    0
 67      1     2       0    0    4    0
 68      1     1       6    0    0    4
 69      1     8       4    0   10    6
 70      1     3       3    7    7    2
 71      1     7       0   10    6    0
 72      1     1       0    8    1    2
 73      1     1       1    0    3    0
 74      1     5       4    4    9    0
 75      1     6       9   10    0    0
 76      1     7       0    3    7    2
 77      1     6       0    0    0    7
 78      1    10       7    2    0    1
 79      1     1       4    0    0    2
 80      1    10      10    0    0    0
 81      1    10       7    0    0    0
 82      1     4       0    8    0    2
 83      1     7       3    0    4    0
 84      1     4       6    6    0    0
 85      1     8       4    0    9    8
 86      1     9       9    0    0    1
 87      1     1       6    9    0    0
 88      1     8       0    0    7    3
 89      1     6       4    0    0    0
 90      1     2       6    0    0    6
 91      1     4       2    0    0    1
 92      1     0       0    0    0    0
************************************************************************
RESOURCEAVAILABILITIES:
  R 1  R 2  R 3  R 4
   31   44   35   46
************************************************************************
